/*********************************************
 * OPL 20.1.0.0 Data
 * Author: utente
 * Creation Date: 13 dic 2022 at 16:54:22
 *********************************************/

 macchine = {"A","b","c","d"};
  prodotti = {1, 2, 3};
  
 o=[18, 20, 16, 19];
  
  prodo=[[20, 15, 12, 10] [30, 7, 25, 15] [22, 14, 21, 16]];
 